Crypto/instances/samples/hf_n23/hf_n23_cnf10.sol
c DPLL-like Solver for max-min SAT
f file hf_n23_cnf10.cnf
p cnf 23 88
s max  88 -6 5 -8 -7 9 10 -23 11 -14 -16 -15 -22 2 3 -21 -1 4 -12 -13 -19 -18 -17 -20
s min  72 6 -5 -8 -7 -9 10 -23 -11 14 -16 -15 -22 2 -3 -21 -1 -4 -12 13 -19 -18 -17 -20